3 
4 
5  03 25 50 
6  10 29 43 58 
7  12 28 43 58 
8  13 28 43 58 
9  12 27 42 57 
10  12 27 42 57 
11  12 27 42 57 
12  12 27 42 57 
13  13 28 43 58 
14  13 28 43 59 
15  14 29 44 59 
16  14 29 44 59 
17  14 29 44 59 
18  14 29 44 59 
19  14 29 44 59 
20  14 30 44 59 
21  14 29 44 59 
22  16 30 46 
23  10 
0 
